c preprocessed version of BrinkmannGraph, 21 vertices, 42 edges
p td 21 42
0 13
0 2
0 5
0 7
1 3
1 6
1 7
1 8
10 16
10 18
11 17
11 19
12 18
12 20
13 14
13 19
14 17
14 18
15 18
15 19
16 19
16 20
17 20
2 4
2 8
2 9
3 10
3 5
3 9
4 10
4 11
4 6
5 11
5 12
6 12
6 13
7 15
7 20
8 14
8 16
9 15
9 17
